words_train/words_693_SAT.qaiger
aag 114 16 0 1 98
32
16
8
22
20
12
26
30
6
4
18
10
28
2
14
24
228
34 5 3
36 34 7
38 36 9
40 38 11
42 40 13
44 41 12
46 45 43
48 21 18
50 49 21
52 50 23
54 52 25
56 54 27
58 56 29
60 57 28
62 61 59
64 63 46
66 39 10
68 67 41
70 55 26
72 71 57
74 73 68
76 37 8
78 77 39
80 53 24
82 81 55
84 83 78
86 82 79
88 87 85
90 35 6
92 91 37
94 51 22
96 95 53
98 97 92
100 4 2
102 101 35
104 20 19
106 105 49
108 107 103
110 106 102
112 19 2
114 113 111
116 115 109
118 117 99
120 96 93
122 121 119
124 122 88
126 125 85
128 72 69
130 129 75
132 130 127
134 133 75
136 62 47
138 137 65
140 138 135
142 141 65
144 42 15
146 43 14
148 147 145
150 58 31
152 59 30
154 153 151
156 155 148
158 154 149
160 159 157
162 160 143
164 161 142
166 165 163
168 121 109
170 168 114
172 131 85
174 18 3
176 175 173
178 176 99
180 178 170
182 139 134
184 183 141
186 184 180
188 118 89
190 189 133
192 190 125
194 192 186
196 194 166
198 163 157
200 33 16
202 32 17
204 203 201
206 205 144
208 204 145
210 209 207
212 210 150
214 211 151
216 215 213
218 216 199
220 217 198
222 221 219
224 223 196
226 222 197
228 227 225
i0 1 x[7]
i1 2 y[7]
i2 2 y[3]
i3 1 x[2]
i4 1 x[1]
i5 2 y[5]
i6 1 x[4]
i7 1 x[6]
i8 2 y[2]
i9 2 y[1]
i10 1 x[0]
i11 2 y[4]
i12 1 x[5]
i13 2 y[0]
i14 2 y[6]
i15 1 x[3]
o0 bv[0]
c
simplified
  >
    unary minus
      1
    add
      unary minus
        2 y
      subtract
        1 x
        1
