words_train/words_693_SAT.qaiger.qdimacs
p cnf 114 295
a 9 10 11 12 13 14 15 16 0
e 1 2 3 4 5 6 7 8 17 18 19 20 21 22 23 24 25 26 27 28 29 30 31 32 33 34 35 36 37 38 39 40 41 42 43 44 45 46 47 48 49 50 51 52 53 54 55 56 57 58 59 60 61 62 63 64 65 66 67 68 69 70 71 72 73 74 75 76 77 78 79 80 81 82 83 84 85 86 87 88 89 90 91 92 93 94 95 96 97 98 99 100 101 102 103 104 105 106 107 108 109 110 111 112 113 114 0
2 1 17 0
-2 -17 0
-1 -17 0
-17 3 18 0
17 -18 0
-3 -18 0
-18 4 19 0
18 -19 0
-4 -19 0
-19 5 20 0
19 -20 0
-5 -20 0
-20 6 21 0
20 -21 0
-6 -21 0
20 -6 22 0
-20 -22 0
6 -22 0
22 21 23 0
-22 -23 0
-21 -23 0
10 -9 24 0
-10 -24 0
9 -24 0
24 10 25 0
-24 -25 0
-10 -25 0
-25 11 26 0
25 -26 0
-11 -26 0
-26 12 27 0
26 -27 0
-12 -27 0
-27 13 28 0
27 -28 0
-13 -28 0
-28 14 29 0
28 -29 0
-14 -29 0
28 -14 30 0
-28 -30 0
14 -30 0
30 29 31 0
-30 -31 0
-29 -31 0
31 -23 32 0
-31 -32 0
23 -32 0
19 -5 33 0
-19 -33 0
5 -33 0
33 20 34 0
-33 -34 0
-20 -34 0
27 -13 35 0
-27 -35 0
13 -35 0
35 28 36 0
-35 -36 0
-28 -36 0
36 -34 37 0
-36 -37 0
34 -37 0
18 -4 38 0
-18 -38 0
4 -38 0
38 19 39 0
-38 -39 0
-19 -39 0
26 -12 40 0
-26 -40 0
12 -40 0
40 27 41 0
-40 -41 0
-27 -41 0
41 -39 42 0
-41 -42 0
39 -42 0
-41 39 43 0
41 -43 0
-39 -43 0
43 42 44 0
-43 -44 0
-42 -44 0
17 -3 45 0
-17 -45 0
3 -45 0
45 18 46 0
-45 -46 0
-18 -46 0
25 -11 47 0
-25 -47 0
11 -47 0
47 26 48 0
-47 -48 0
-26 -48 0
48 -46 49 0
-48 -49 0
46 -49 0
-2 -1 50 0
2 -50 0
1 -50 0
50 17 51 0
-50 -51 0
-17 -51 0
-10 9 52 0
10 -52 0
-9 -52 0
52 24 53 0
-52 -53 0
-24 -53 0
53 51 54 0
-53 -54 0
-51 -54 0
-53 -51 55 0
53 -55 0
51 -55 0
9 -1 56 0
-9 -56 0
1 -56 0
56 55 57 0
-56 -57 0
-55 -57 0
57 54 58 0
-57 -58 0
-54 -58 0
58 49 59 0
-58 -59 0
-49 -59 0
-48 46 60 0
48 -60 0
-46 -60 0
60 59 61 0
-60 -61 0
-59 -61 0
-61 -44 62 0
61 -62 0
44 -62 0
62 42 63 0
-62 -63 0
-42 -63 0
-36 34 64 0
36 -64 0
-34 -64 0
64 37 65 0
-64 -65 0
-37 -65 0
-65 63 66 0
65 -66 0
-63 -66 0
66 37 67 0
-66 -67 0
-37 -67 0
-31 23 68 0
31 -68 0
-23 -68 0
68 32 69 0
-68 -69 0
-32 -69 0
-69 67 70 0
69 -70 0
-67 -70 0
70 32 71 0
-70 -71 0
-32 -71 0
-21 7 72 0
21 -72 0
-7 -72 0
21 -7 73 0
-21 -73 0
7 -73 0
73 72 74 0
-73 -74 0
-72 -74 0
-29 15 75 0
29 -75 0
-15 -75 0
29 -15 76 0
-29 -76 0
15 -76 0
76 75 77 0
-76 -77 0
-75 -77 0
77 -74 78 0
-77 -78 0
74 -78 0
-77 74 79 0
77 -79 0
-74 -79 0
79 78 80 0
-79 -80 0
-78 -80 0
-80 71 81 0
80 -81 0
-71 -81 0
80 -71 82 0
-80 -82 0
71 -82 0
82 81 83 0
-82 -83 0
-81 -83 0
60 54 84 0
-60 -84 0
-54 -84 0
-84 -57 85 0
84 -85 0
57 -85 0
65 42 86 0
-65 -86 0
-42 -86 0
-9 1 87 0
9 -87 0
-1 -87 0
87 86 88 0
-87 -88 0
-86 -88 0
-88 49 89 0
88 -89 0
-49 -89 0
-89 -85 90 0
89 -90 0
85 -90 0
69 -67 91 0
-69 -91 0
67 -91 0
91 70 92 0
-91 -92 0
-70 -92 0
-92 -90 93 0
92 -93 0
90 -93 0
-59 44 94 0
59 -94 0
-44 -94 0
94 66 95 0
-94 -95 0
-66 -95 0
-95 62 96 0
95 -96 0
-62 -96 0
-96 -93 97 0
96 -97 0
93 -97 0
-97 -83 98 0
97 -98 0
83 -98 0
81 78 99 0
-81 -99 0
-78 -99 0
16 -8 100 0
-16 -100 0
8 -100 0
-16 8 101 0
16 -101 0
-8 -101 0
101 100 102 0
-101 -102 0
-100 -102 0
102 -72 103 0
-102 -103 0
72 -103 0
-102 72 104 0
102 -104 0
-72 -104 0
104 103 105 0
-104 -105 0
-103 -105 0
-105 -75 106 0
105 -106 0
75 -106 0
105 75 107 0
-105 -107 0
-75 -107 0
107 106 108 0
-107 -108 0
-106 -108 0
-108 99 109 0
108 -109 0
-99 -109 0
108 -99 110 0
-108 -110 0
99 -110 0
110 109 111 0
-110 -111 0
-109 -111 0
111 -98 112 0
-111 -112 0
98 -112 0
-111 98 113 0
111 -113 0
-98 -113 0
113 112 114 0
-113 -114 0
-112 -114 0
114 0
